# Objective value = 52
WA1n 0
WA1p 0
WA2n 1
WA2p 0
WB1n 0
WB1p 0
WB2n 1
WB2p 0
WC1n 0
WC1p 0
WC2n 0
WC2p 1
WD1n 1
WD1p 0
WE1n 0
WE1p 1
WF1n 2
WF1p 0
WG1n 0
WG1p 2
WH1n 0
WH1p 4
WI1n 0
WI1p 8
WJ1n 0
WJ1p 12
WT1n 0
WT1p 16
5 7
a 0
b 0
c 0
d 0
e 0
f 1
g 0
h 1
i 0
j 1
k 1
l 1
m 1
n 1
